; Cost calculation with proper TSP tour distance calculation
; Variables tour and cost are assumed to be already declared

; Distance matrix constants
(declare-const dist_1_2 Real)
(assert (= dist_1_2 111.194927))
(declare-const dist_1_3 Real)
(assert (= dist_1_3 157.249381))
(declare-const dist_1_4 Real)
(assert (= dist_1_4 111.194927))
(declare-const dist_1_5 Real)
(assert (= dist_1_5 78.626188))
(declare-const dist_1_6 Real)
(assert (= dist_1_6 229.231475))
(declare-const dist_2_1 Real)
(assert (= dist_2_1 111.194927))
(declare-const dist_2_3 Real)
(assert (= dist_2_3 111.177991))
(declare-const dist_2_4 Real)
(assert (= dist_2_4 157.249381))
(declare-const dist_2_5 Real)
(assert (= dist_2_5 78.623194))
(declare-const dist_2_6 Real)
(assert (= dist_2_6 124.310872))
(declare-const dist_3_1 Real)
(assert (= dist_3_1 157.249381))
(declare-const dist_3_2 Real)
(assert (= dist_3_2 111.177991))
(declare-const dist_3_4 Real)
(assert (= dist_3_4 111.194927))
(declare-const dist_3_5 Real)
(assert (= dist_3_5 78.623194))
(declare-const dist_3_6 Real)
(assert (= dist_3_6 124.310872))
(declare-const dist_4_1 Real)
(assert (= dist_4_1 111.194927))
(declare-const dist_4_2 Real)
(assert (= dist_4_2 157.249381))
(declare-const dist_4_3 Real)
(assert (= dist_4_3 111.194927))
(declare-const dist_4_5 Real)
(assert (= dist_4_5 78.626188))
(declare-const dist_4_6 Real)
(assert (= dist_4_6 229.231475))
(declare-const dist_5_1 Real)
(assert (= dist_5_1 78.626188))
(declare-const dist_5_2 Real)
(assert (= dist_5_2 78.623194))
(declare-const dist_5_3 Real)
(assert (= dist_5_3 78.623194))
(declare-const dist_5_4 Real)
(assert (= dist_5_4 78.626188))
(declare-const dist_5_6 Real)
(assert (= dist_5_6 166.792390))
(declare-const dist_6_1 Real)
(assert (= dist_6_1 229.231475))
(declare-const dist_6_2 Real)
(assert (= dist_6_2 124.310872))
(declare-const dist_6_3 Real)
(assert (= dist_6_3 124.310872))
(declare-const dist_6_4 Real)
(assert (= dist_6_4 229.231475))
(declare-const dist_6_5 Real)
(assert (= dist_6_5 166.792390))

; Simplified cost bounds for TSP
; Cost represents the total tour distance
(assert (>= cost 0))  ; Cost must be non-negative
(assert (<= cost 100000))  ; Reasonable upper bound for most TSP instances

; For now, we don't constrain cost tightly - we'll evaluate actual costs of found tours
